(set-logic QF_BV)
(declare-fun _substvar_240_ () (_ BitVec 12))
(declare-fun _substvar_320_ () (_ BitVec 12))
(declare-fun _substvar_317_ () (_ BitVec 12))
(declare-fun _substvar_241_ () (_ BitVec 12))
(define-fun mask1 ((x (_ BitVec 12))) (_ BitVec 12) (_ bv3072 12))
(define-fun shlok ((x (_ BitVec 12)) (y (_ BitVec 12))) Bool (= (bvand x (mask1 (_ bv0 12))) (_ bv0 12)))
(assert (or false false false false false false false false false false false false false false false false false false false false false false false false false false false false false false false false false false false false false false false false false false false false false false false false false false false false false false false false false false false false false false false false false false false false false false false false false false false false false false false false false false false false false false false false false false false false false false false false false false false false false false false false false false false false false false false false false false false false false (and (shlok _substvar_241_ (_ bv0 12)) (shlok _substvar_240_ (_ bv0 12)) true (= _substvar_317_ (bvsub _substvar_241_ _substvar_240_))) false false false false false false))
(assert (or false false false false false false false false false false false false false false false false false false false false false false false false false false false false false false false false false false false false false false false false false false false false false false false false false false false false false false false false false false false false false false false false false false false false false false false false false false false false false false false false false false false false false false false false false false false false false false false false false false false false false false false false false false false false false false false false false false false false false false false false false false false false false false false false false false false false false false false false false false false (and true true true (= _substvar_320_ (bvsub _substvar_317_ _substvar_241_))) false false false false false false false false false false false false false))
(assert (or false false false false false false false false (= (_ bv343 12) _substvar_320_) false))
(check-sat)
(exit)
